param set_len = 42;
param target_sum = 12116600279;
param values := [1] 160760780 [2] 181180832 [3] 443969972 [4] 904494284 [5] 278355262 [6] 1031121068 [7] 182470962 [8] 159609958 [9] 1781218 [10] 947984674 [11] 179719764 [12] 255852176 [13] 563193625 [14] 565572023 [15] 483525848 [16] 310655633 [17] 372013376 [18] 912649841 [19] 767133249 [20] 287860879 [21] 857676626 [22] 746268411 [23] 817932798 [24] 829933746 [25] 37300473 [26] 971279611 [27] 986255898 [28] 727504058 [29] 179695998 [30] 837393498 [31] 263688849 [32] 1064373046 [33] 836628194 [34] 868411434 [35] 1053778076 [36] 741574273 [37] 224959670 [38] 789538313 [39] 838187166 [40] 436468638 [41] 440328761 [42] 163953435 ;
